
(set-logic BV)

(define-fun shr1 ((x (BitVec 64))) (BitVec 64) (bvlshr x #x0000000000000001))
(define-fun shr4 ((x (BitVec 64))) (BitVec 64) (bvlshr x #x0000000000000004))
(define-fun shr16 ((x (BitVec 64))) (BitVec 64) (bvlshr x #x0000000000000010))
(define-fun shl1 ((x (BitVec 64))) (BitVec 64) (bvshl x #x0000000000000001))
(define-fun if0 ((x (BitVec 64)) (y (BitVec 64)) (z (BitVec 64))) (BitVec 64) (ite (= x #x0000000000000001) y z))
(define-fun func22  ((A (BitVec 64)) ) (BitVec 64) (bvand A  #x0000000000000001 ))
(define-fun func23  ((A (BitVec 64)) (B (BitVec 64)) (C (BitVec 64)) ) (BitVec 64) (bvand (bvlshr B  C ) A ))
(define-fun func24  ((A (BitVec 64)) (B (BitVec 64)) ) (BitVec 64) (bvand (bvlshr B  #x0000000000000001 ) A ))
(define-fun func25  ((A (BitVec 64)) (B (BitVec 64)) ) (BitVec 64) (bvand (bvlshr B  #x0000000000000010 ) A ))
(define-fun func26  ((A (BitVec 64)) (B (BitVec 64)) ) (BitVec 64) (bvand (bvlshr B  #x0000000000000004 ) A ))
(define-fun func27  ((A (BitVec 64)) (B (BitVec 64)) (C (BitVec 64)) (D (BitVec 64)) ) (BitVec 64) (bvand (bvlshr (bvlshr C  D ) B ) A ))
(define-fun func28  ((A (BitVec 64)) (B (BitVec 64)) ) (BitVec 64) (bvand (bvlshr A  B ) #x0000000000000001 ))
(define-fun func29  ((A (BitVec 64)) (B (BitVec 64)) ) (BitVec 64) (bvlshr A  B ))
(define-fun func30  ((A (BitVec 64)) (B (BitVec 64)) (C (BitVec 64)) ) (BitVec 64) (bvlshr (bvlshr B  C ) A ))
(define-fun func31  ((A (BitVec 64)) (B (BitVec 64)) ) (BitVec 64) (bvlshr (bvlshr B  #x0000000000000010 ) A ))
(define-fun func32  ((A (BitVec 64)) (B (BitVec 64)) ) (BitVec 64) (bvlshr (bvlshr B  #x0000000000000004 ) A ))
(define-fun func33  ((A (BitVec 64)) (B (BitVec 64)) (C (BitVec 64)) (D (BitVec 64)) ) (BitVec 64) (bvlshr (bvlshr (bvlshr C  D ) B ) A ))
(define-fun func34  ((A (BitVec 64)) (B (BitVec 64)) (C (BitVec 64)) ) (BitVec 64) (bvlshr (bvlshr (bvlshr C  #x0000000000000010 ) B ) A ))
(define-fun func35  ((A (BitVec 64)) (B (BitVec 64)) ) (BitVec 64) (bvlshr (bvlshr B  #x0000000000000001 ) A ))
(define-fun func36  ((A (BitVec 64)) (B (BitVec 64)) ) (BitVec 64) (bvlshr (bvlshr A  B ) #x0000000000000001 ))
(define-fun func37  ((A (BitVec 64)) (B (BitVec 64)) ) (BitVec 64) (bvlshr (bvlshr A  B ) #x0000000000000004 ))
(define-fun func38  ((A (BitVec 64)) (B (BitVec 64)) (C (BitVec 64)) ) (BitVec 64) (bvlshr (bvshl B  C ) A ))
(define-fun func39  ((A (BitVec 64)) (B (BitVec 64)) ) (BitVec 64) (bvlshr (bvshl B  #x0000000000000001 ) A ))
(define-fun func40  ((A (BitVec 64)) (B (BitVec 64)) ) (BitVec 64) (bvlshr (bvnot B ) A ))
(define-fun func41  ((A (BitVec 64)) ) (BitVec 64) (bvlshr (bvnot A ) #x0000000000000010 ))
(define-fun func42  ((A (BitVec 64)) (B (BitVec 64)) (C (BitVec 64)) ) (BitVec 64) (bvlshr (bvadd B  C ) A ))
(define-fun func44  ((A (BitVec 64)) (B (BitVec 64)) (C (BitVec 64)) ) (BitVec 64) (bvshl (bvlshr B  C ) A ))
(define-fun func45  ((A (BitVec 64)) (B (BitVec 64)) ) (BitVec 64) (bvshl (bvlshr B  #x0000000000000001 ) A ))
(define-fun func46  ((A (BitVec 64)) (B (BitVec 64)) ) (BitVec 64) (bvshl (bvlshr A  B ) #x0000000000000001 ))
(define-fun func47  ((A (BitVec 64)) (B (BitVec 64)) ) (BitVec 64) (bvshl (bvnot B ) A ))
(define-fun func48  ((A (BitVec 64)) ) (BitVec 64) (bvshl (bvnot A ) #x0000000000000001 ))
(define-fun func50  ((A (BitVec 64)) ) (BitVec 64) (bvnot (bvshl A  #x0000000000000001 )))
(define-fun func51  ((A (BitVec 64)) ) (BitVec 64) (bvadd A  #x0000000000000001 ))
(define-fun func52  ((A (BitVec 64)) (B (BitVec 64)) (C (BitVec 64)) ) (BitVec 64) (bvadd (bvlshr B  C ) A ))
(define-fun func53  ((A (BitVec 64)) (B (BitVec 64)) (C (BitVec 64)) ) (BitVec 64) (bvadd (bvshl B  C ) A ))
(define-fun func54  ((A (BitVec 64)) (B (BitVec 64)) ) (BitVec 64) (bvadd (bvshl B  #x0000000000000001 ) A ))
(define-fun func55  ((A (BitVec 64)) ) (BitVec 64) (bvor A  #x0000000000000001 ))
(define-fun func56  ((A (BitVec 64)) (B (BitVec 64)) (C (BitVec 64)) ) (BitVec 64) (bvor (bvlshr B  C ) A ))
(synth-fun f ( (x (BitVec 64))) (BitVec 64)
(
(Start (BitVec 64) (
   #x0000000000000000
   #x0000000000000001
   x
   (func24 Start Start)
   (func26 Start Start)
   (func30 Start Start Start)
   (func32 Start Start)
   (func35 Start Start)
   (func36 Start Start)
   (func40 Start Start)
   (func41 Start)
   (func47 Start Start)
   (func51 Start)
   (func54 Start Start)
   (bvnot Start)
   (shr1 Start)
   (shr4 Start)
   (shr16 Start)
   (bvand Start Start)
   (bvxor Start Start)
   (bvadd Start Start)
   (if0 Start Start Start)
))
))
(constraint (= (f #x0bd7094cade4ad06) #x23851be609ae0712))
(constraint (= (f #x3583fe2f05564744) #xa08bfa8d1002d5cc))
(constraint (= (f #x04c164cbe277b000) #x0e442e63a7671000))
(constraint (= (f #x880b1352a568e642) #x982139f7f03ab2c6))
(constraint (= (f #xa00a4f19b7b599ac) #xe01eed4d2720cd04))
(constraint (= (f #x16810f9249fc73e2) #x0000000000000001))
(constraint (= (f #xa8fac36f15297b62) #x0000000000000001))
(constraint (= (f #x5bac9073389763a2) #x0000000000000001))
(constraint (= (f #xdb95ae336468fd2a) #x0000000000000001))
(constraint (= (f #x391b44fabd3c266e) #x0000000000000001))
(constraint (= (f #x00000000002c6a86) #x0000000000853f92))
(constraint (= (f #x000000000030e140) #x000000000092a3c0))
(constraint (= (f #x00000000003de88a) #x0000000000b9b99e))
(constraint (= (f #x0000000000352d4c) #x00000000009f87e4))
(constraint (= (f #x00000000002a078a) #x00000000007e169e))
(constraint (= (f #xd0e5f9bafac79814) #x72b1ed30f056c83c))
(constraint (= (f #x1b9547be7a57f692) #x52bfd73b6f07e3b6))
(constraint (= (f #x7427ce73fff172b4) #x5c776b5bffd4581c))
(constraint (= (f #x37941a2b4c01521c) #xa6bc4e81e403f654))
(constraint (= (f #x4e9df6db010128f4) #xebd9e49103037adc))
(constraint (= (f #x000000000026ac66) #x0000000000740532))
(constraint (= (f #x000000000027ee22) #x000000000077ca66))
(constraint (= (f #x0000000000228a62) #x0000000000679f26))
(constraint (= (f #x00000000002712e2) #x00000000007538a6))
(constraint (= (f #x000000000034bae6) #x00000000009e30b2))
(constraint (= (f #xd88979e908889295) #x0000000000000001))
(constraint (= (f #xdfeb6485b10a53f9) #x0000000000000001))
(constraint (= (f #x28689ac6feb7c9ff) #x0000000000000001))
(constraint (= (f #x2a9276ec7df07133) #x0000000000000001))
(constraint (= (f #x85cccdc362f5663b) #x0000000000000001))
(constraint (= (f #xd3fbd80834d6c272) #x069fdec041a6b613))
(constraint (= (f #xaa3daf54be1cd7f2) #x0551ed7aa5f0e6bf))
(constraint (= (f #x6dfd70018448d37e) #x036feb800c22469b))
(constraint (= (f #x1482ffb2b82354fe) #x00a417fd95c11aa7))
(constraint (= (f #x306b02323a03b636) #x0183581191d01db1))
(constraint (= (f #x00000000002abebc) #x0000000000803c34))
(constraint (= (f #x00000000002b62d8) #x0000000000822888))
(constraint (= (f #x00000000003db770) #x0000000000b92650))
(constraint (= (f #x0000000000343c38) #x00000000009cb4a8))
(constraint (= (f #x0000000000379354) #x0000000000a6b9fc))
(constraint (= (f #x00000000002c2e5f) #x0000000000000001))
(constraint (= (f #x00000000003d7451) #x0000000000000001))
(constraint (= (f #x00000000003216d1) #x0000000000000001))
(constraint (= (f #x000000000037687b) #x0000000000000001))
(constraint (= (f #x00000000002e81dd) #x0000000000000001))
(constraint (= (f #x00000000002598f6) #x000000000070cae2))
(constraint (= (f #x0000000000398cfe) #x0000000000aca6fa))
(constraint (= (f #x000000000021867a) #x000000000064936e))
(constraint (= (f #x0000000000275a7a) #x0000000000760f6e))
(constraint (= (f #x000000000027c9fe) #x0000000000775dfa))
(constraint (= (f #xffff00087ff88011) #x0000000000000001))
(constraint (= (f #x000000ffff02007f) #x0000000000000001))
(constraint (= (f #x001fffe2000e00f3) #x0000000000000001))
(constraint (= (f #x3fffc004003c0051) #x0000000000000001))
(constraint (= (f #xffff000403fc0c11) #x0000000000000001))
(constraint (= (f #x42758715f683d141) #x0213ac38afb41e8b))
(constraint (= (f #xe4d82d5f5ec4db47) #x0726c16afaf626db))
(constraint (= (f #x129b1e43afa3412b) #x0094d8f21d7d1a09))
(constraint (= (f #x81901b45504ff60d) #x040c80da2a827fb1))
(constraint (= (f #xdd94b0cfaa62e841) #x06eca5867d531743))
(constraint (= (f #x00000000002d9261) #x0000000000016c93))
(constraint (= (f #x000000000036f9ed) #x000000000001b7cf))
(constraint (= (f #x000000000033dbc3) #x0000000000019edf))
(constraint (= (f #x00000000003933c1) #x000000000001c99f))
(constraint (= (f #x00000000003f554f) #x000000000001faab))
(constraint (= (f #x07fff80800387fc9) #x003fffc04001c3ff))
(constraint (= (f #x00003fffc0401fc1) #x000001fffe0200ff))
(constraint (= (f #x7fff800200020007) #x03fffc0010001001))
(constraint (= (f #x0ffff004007c1fa1) #x007fff802003e0fd))
(constraint (= (f #x03fffc0008001801) #x001fffe0004000c1))
(check-synth)
